500
[100,101,102,104,106,107,108,109,110,111,113,114,115,116,117,118,120,121,122,124,126,128,129,130,131,132,134,135,138,139,140,142,143,147,148,150,151,153,154,156,157,159,160,162,163,164,168,169,170,172,173,174,175,176,177,179,180,181,182,185,189,192,193,194,196,198,199,200,204,205,209,212,214,216,217,220,221,222,223,225,226,227,230,231,233,234,235,236,237,238,239,240,242,245,248,249,250,252,253,254,256,257,259,260,261,263,264,265,267,268,269,270,272,273,275,276,277,278,280,282,283,284,285,287,288,289,290,291,292,293,295,296,299,303,304,305,306,308,310,311,312,314,316,317,318,319,320,322,323,324,326,327,328,330,331,332,333,334,336,338,339,340,343,345,346,347,348,350]
[2,1,2,2,1,2,2,1,2,1,1,2,2,1,1,3,1,1,2,1,2,3,1,1,2,3,1,2,1,3,1,1,1,1,3,1,1,1,1,2,1,1,2,2,3,2,1,1,2,1,2,1,1,2,2,1,2,2,2,2,1,2,3,1,1,2,1,2,3,3,1,1,4,1,2,1,2,1,3,2,1,4,1,1,3,1,3,1,1,2,1,3,1,2,1,4,1,1,4,3,1,1,1,2,2,1,3,3,1,2,2,1,2,1,1,1,1,2,2,1,1,1,1,2,2,5,1,3,3,1,1,1,2,2,2,2,4,1,2,2,1,3,1,1,4,1,1,1,1,3,1,2,2,2,1,3,3,1,1,4,6,4,1,1,2,2,3,2]
